n_res = 4;
rcap = [14, 12, 102, 89];
rtype = [1, 1, 2, 2];
n_tasks = 16;
modes = [ {1}, {2}, {3}, {4}, {5}, {6}, {7}, {8}, {9}, {10}, {11}, {12}, {13}, {14}, {15}, {16} ];
succ = [ {4, 6, 8}, {6, 8, 9}, {5, 10, 15}, {7, 11}, {6, 9, 11}, {13, 14}, {9, 12, 16}, {10, 11, 15}, {14}, {14}, {13}, {15}, {16}, {}, {}, {} ];
n_opt = 16;
dur = [8, 8, 10, 1, 1, 8, 10, 1, 1, 4, 3, 2, 5, 4, 7, 6];
rreq = [|  9,  8,  7, 10,  7,  5,  1,  6,  4,  3,  7,  8,  9,  9,  4,  7
        |  5,  9,  8,  4,  4,  6,  1,  9,  4,  7,  4,  3,  3,  7,  3,  7
        |  1,  9, 10,  1,  6,  3,  5,  9,  6,  7,  9,  5,  7,  9,  9,  6
        |  5,  5,  4,  5,  7,  8,  2,  6,  7,  5,  9,  5,  7,  4,  7,  3 |];
